p edge 254
e 0 1
e 0 2
e 0 69
e 0 137
e 0 157
e 0 162
e 1 2
e 1 3
e 1 157
e 1 222
e 2 3
e 2 4
e 2 137
e 2 201
e 3 4
e 3 114
e 3 208
e 3 222
e 4 111
e 4 114
e 4 201
e 5 38
e 5 58
e 5 100
e 5 251
e 6 7
e 6 8
e 6 56
e 6 154
e 6 167
e 6 248
e 7 8
e 7 167
e 7 202
e 8 56
e 8 57
e 9 20
e 9 124
e 9 173
e 9 209
e 9 237
e 10 85
e 10 106
e 10 134
e 10 145
e 10 188
e 11 26
e 11 27
e 11 95
e 11 115
e 11 213
e 12 36
e 12 50
e 12 94
e 12 168
e 13 17
e 13 18
e 13 59
e 13 62
e 13 142
e 13 157
e 13 222
e 14 84
e 14 101
e 15 42
e 15 136
e 15 178
e 15 189
e 15 215
e 15 225
e 15 228
e 16 17
e 16 18
e 16 127
e 16 162
e 16 170
e 16 217
e 17 18
e 17 157
e 17 162
e 18 142
e 18 161
e 19 20
e 19 44
e 19 72
e 19 103
e 20 44
e 20 103
e 20 173
e 20 209
e 21 25
e 21 52
e 21 163
e 21 170
e 21 180
e 22 67
e 22 112
e 22 177
e 22 201
e 22 204
e 22 205
e 23 24
e 23 28
e 23 115
e 23 149
e 24 28
e 24 31
e 24 34
e 24 149
e 24 232
e 25 29
e 25 32
e 25 33
e 25 34
e 25 52
e 25 180
e 26 27
e 26 30
e 26 32
e 26 118
e 26 140
e 26 198
e 26 213
e 27 28
e 27 29
e 27 30
e 27 115
e 28 29
e 28 34
e 28 115
e 29 30
e 29 32
e 29 34
e 30 32
e 31 33
e 31 34
e 31 54
e 31 87
e 31 232
e 32 52
e 32 140
e 33 34
e 33 54
e 33 180
e 33 187
e 33 197
e 35 165
e 35 179
e 35 220
e 35 221
e 35 239
e 36 47
e 36 49
e 36 50
e 36 174
e 36 206
e 37 74
e 37 211
e 37 214
e 37 221
e 38 58
e 38 59
e 38 61
e 38 133
e 38 251
e 39 40
e 39 148
e 39 176
e 41 42
e 41 43
e 41 150
e 41 151
e 41 218
e 41 234
e 42 43
e 42 215
e 42 225
e 42 234
e 43 119
e 43 164
e 43 225
e 44 45
e 44 72
e 44 143
e 44 173
e 45 74
e 45 143
e 45 173
e 45 210
e 45 219
e 46 48
e 46 50
e 46 141
e 46 223
e 46 252
e 47 49
e 47 55
e 47 206
e 48 49
e 48 55
e 48 191
e 48 252
e 49 50
e 50 93
e 50 94
e 51 85
e 51 86
e 51 91
e 51 240
e 51 253
e 52 66
e 52 92
e 52 121
e 52 140
e 52 163
e 53 74
e 53 102
e 53 210
e 54 87
e 54 117
e 54 187
e 55 191
e 55 242
e 56 57
e 56 60
e 56 64
e 56 154
e 56 235
e 57 63
e 57 64
e 58 61
e 58 63
e 58 64
e 59 61
e 59 62
e 59 133
e 59 222
e 60 62
e 60 64
e 60 65
e 60 142
e 60 235
e 61 62
e 61 64
e 62 64
e 62 142
e 63 64
e 65 142
e 65 161
e 65 190
e 65 230
e 65 235
e 66 79
e 66 83
e 66 90
e 66 92
e 66 121
e 66 230
e 67 109
e 67 112
e 67 177
e 67 239
e 67 245
e 68 69
e 68 70
e 68 137
e 68 189
e 68 194
e 68 228
e 69 70
e 69 126
e 69 127
e 69 137
e 69 162
e 70 126
e 70 194
e 70 197
e 71 72
e 71 84
e 71 101
e 71 143
e 72 143
e 73 81
e 73 85
e 73 188
e 73 240
e 73 243
e 74 183
e 74 210
e 74 211
e 75 82
e 75 139
e 75 184
e 75 243
e 76 77
e 76 78
e 76 79
e 76 121
e 77 78
e 77 88
e 77 121
e 77 146
e 77 166
e 77 199
e 78 79
e 78 166
e 78 203
e 79 90
e 79 121
e 79 135
e 79 203
e 80 82
e 80 182
e 80 236
e 80 241
e 81 82
e 81 188
e 81 241
e 81 243
e 82 99
e 83 90
e 83 154
e 83 160
e 83 167
e 83 190
e 83 230
e 83 248
e 84 101
e 84 102
e 84 143
e 85 86
e 85 134
e 85 240
e 86 91
e 86 134
e 86 231
e 87 117
e 87 156
e 87 195
e 87 215
e 87 232
e 88 89
e 88 146
e 88 199
e 88 238
e 89 171
e 89 199
e 89 238
e 90 135
e 90 160
e 91 193
e 91 227
e 91 231
e 91 253
e 92 163
e 92 217
e 92 230
e 93 94
e 93 141
e 93 200
e 94 131
e 94 168
e 94 226
e 94 233
e 95 171
e 95 213
e 96 107
e 96 113
e 96 183
e 96 211
e 96 214
e 97 98
e 97 148
e 97 176
e 97 193
e 97 250
e 98 193
e 98 253
e 99 184
e 99 191
e 99 236
e 99 252
e 100 103
e 100 125
e 100 209
e 100 251
e 102 143
e 102 210
e 103 209
e 104 105
e 104 179
e 104 212
e 104 224
e 105 106
e 105 152
e 105 153
e 105 164
e 105 212
e 105 224
e 106 134
e 106 145
e 106 153
e 106 224
e 107 108
e 107 110
e 107 113
e 107 173
e 107 183
e 107 219
e 107 237
e 108 110
e 108 114
e 108 208
e 108 237
e 109 110
e 109 112
e 109 113
e 109 122
e 109 245
e 110 111
e 110 112
e 110 113
e 110 114
e 111 112
e 111 114
e 111 201
e 112 201
e 113 122
e 114 208
e 116 145
e 116 151
e 116 181
e 116 188
e 116 241
e 117 136
e 117 187
e 117 194
e 117 197
e 117 215
e 118 146
e 118 198
e 118 213
e 118 238
e 119 145
e 119 151
e 119 153
e 119 164
e 120 138
e 120 171
e 120 199
e 121 140
e 121 146
e 122 214
e 122 221
e 122 239
e 122 245
e 123 130
e 123 159
e 123 172
e 123 244
e 124 125
e 124 209
e 124 216
e 124 237
e 125 196
e 125 209
e 125 216
e 125 251
e 126 127
e 126 170
e 126 180
e 126 197
e 127 162
e 127 170
e 128 129
e 128 130
e 128 156
e 128 159
e 128 232
e 129 130
e 129 149
e 129 232
e 131 226
e 131 233
e 132 141
e 132 147
e 132 158
e 132 200
e 133 196
e 133 222
e 133 251
e 134 224
e 135 160
e 135 203
e 135 229
e 136 194
e 136 215
e 136 228
e 137 189
e 137 201
e 137 204
e 138 166
e 138 199
e 139 175
e 139 186
e 140 146
e 140 198
e 141 158
e 141 223
e 142 161
e 143 210
e 144 174
e 144 206
e 145 153
e 145 188
e 146 198
e 146 238
e 147 155
e 147 158
e 147 172
e 148 176
e 148 192
e 148 249
e 148 250
e 149 232
e 150 169
e 150 218
e 150 234
e 150 246
e 151 181
e 151 218
e 152 164
e 152 178
e 152 207
e 152 225
e 153 164
e 154 190
e 154 235
e 154 248
e 155 158
e 155 172
e 155 185
e 155 244
e 155 247
e 156 169
e 156 195
e 156 232
e 157 162
e 157 222
e 158 223
e 158 247
e 159 169
e 159 244
e 159 246
e 160 167
e 160 229
e 161 217
e 161 230
e 163 170
e 163 217
e 164 225
e 165 179
e 165 192
e 165 250
e 166 199
e 167 202
e 167 229
e 167 248
e 168 174
e 168 226
e 169 195
e 169 234
e 170 180
e 170 217
e 171 199
e 171 213
e 171 238
e 172 244
e 173 219
e 173 237
e 175 184
e 175 242
e 177 205
e 177 207
e 177 220
e 177 239
e 178 189
e 178 205
e 178 207
e 178 225
e 179 212
e 179 220
e 179 224
e 179 227
e 179 231
e 179 250
e 180 197
e 181 182
e 181 218
e 181 241
e 182 185
e 182 247
e 183 211
e 183 219
e 184 191
e 184 242
e 185 218
e 185 244
e 185 246
e 186 240
e 186 243
e 187 197
e 188 241
e 189 204
e 189 205
e 189 228
e 190 230
e 190 235
e 191 242
e 191 252
e 192 249
e 192 250
e 193 227
e 193 250
e 193 253
e 194 197
e 194 228
e 195 215
e 195 234
e 196 208
e 196 216
e 196 222
e 196 251
e 200 233
e 201 204
e 202 229
e 204 205
e 205 207
e 207 212
e 208 216
e 208 222
e 208 237
e 211 214
e 212 220
e 213 238
e 215 234
e 216 237
e 217 230
e 220 239
e 221 239
e 223 236
e 223 247
e 223 252
e 224 231
e 227 231
e 227 250
e 236 247
e 236 252
e 239 245
e 240 243
e 244 246
c k 38
